(set-info :smt-lib-version 2.6)
(set-logic QF_UFLRA)
(set-info :source |
MathSat group

|)
(set-info :category "random")
(set-info :status sat)
(declare-fun x0 () Real)
(declare-fun x1 () Real)
(declare-fun x2 () Real)
(declare-fun x3 () Real)
(declare-fun x4 () Real)
(declare-fun x5 () Real)
(declare-fun x6 () Real)
(declare-fun x7 () Real)
(declare-fun x8 () Real)
(declare-fun x9 () Real)
(declare-fun x10 () Real)
(declare-fun x11 () Real)
(declare-fun x12 () Real)
(declare-fun x13 () Real)
(declare-fun x14 () Real)
(declare-fun x15 () Real)
(declare-fun x16 () Real)
(declare-fun x17 () Real)
(declare-fun x18 () Real)
(declare-fun x19 () Real)
(declare-fun x20 () Real)
(declare-fun x21 () Real)
(declare-fun x22 () Real)
(declare-fun x23 () Real)
(declare-fun x24 () Real)
(declare-fun x25 () Real)
(declare-fun x26 () Real)
(declare-fun x27 () Real)
(declare-fun x28 () Real)
(declare-fun x29 () Real)
(declare-fun x30 () Real)
(declare-fun x31 () Real)
(declare-fun x32 () Real)
(declare-fun x33 () Real)
(declare-fun x34 () Real)
(declare-fun x35 () Real)
(declare-fun x36 () Real)
(declare-fun x37 () Real)
(declare-fun x38 () Real)
(declare-fun x39 () Real)
(declare-fun f0_1 (Real) Real)
(declare-fun f0_2 (Real Real) Real)
(declare-fun f0_3 (Real Real Real) Real)
(declare-fun f0_4 (Real Real Real Real) Real)
(declare-fun P0 () Bool)
(declare-fun P1 () Bool)
(declare-fun P2 () Bool)
(declare-fun P3 () Bool)
(declare-fun P4 () Bool)
(declare-fun P5 () Bool)
(declare-fun P6 () Bool)
(declare-fun P7 () Bool)
(declare-fun P8 () Bool)
(declare-fun P9 () Bool)
(declare-fun P10 () Bool)
(declare-fun P11 () Bool)
(declare-fun P12 () Bool)
(declare-fun P13 () Bool)
(declare-fun P14 () Bool)
(declare-fun P15 () Bool)
(declare-fun P16 () Bool)
(declare-fun P17 () Bool)
(declare-fun P18 () Bool)
(declare-fun P19 () Bool)
(declare-fun P20 () Bool)
(declare-fun P21 () Bool)
(declare-fun P22 () Bool)
(declare-fun P23 () Bool)
(declare-fun P24 () Bool)
(declare-fun P25 () Bool)
(declare-fun P26 () Bool)
(declare-fun P27 () Bool)
(declare-fun P28 () Bool)
(declare-fun P29 () Bool)
(declare-fun P30 () Bool)
(declare-fun P31 () Bool)
(declare-fun P32 () Bool)
(declare-fun P33 () Bool)
(declare-fun P34 () Bool)
(declare-fun P35 () Bool)
(declare-fun P36 () Bool)
(declare-fun P37 () Bool)
(declare-fun P38 () Bool)
(declare-fun P39 () Bool)
(assert (let ((?v_85 (= (- (+ (* 18 x12) (* 24 x3)) (* 10 x16)) 9)) (?v_9 (distinct (- (+ (* 40 x30) (* 11 x33)) (* 48 x12)) 0)) (?v_49 (* 37 x20)) (?v_158 (* 40 x7)) (?v_179 (<= (- (+ (* 25 x33) (* 3 x31)) (* 50 x9)) 56)) (?v_106 (<= (+ (- (* 51 x15) (* 52 x16)) (* 38 x38)) 53)) (?v_68 (< (- (- (* 42 x22) (* 41 x13)) (* 53 x17)) 6)) (?v_94 (< (- (- (* 22 x9) (* 16 x20)) (* 35 x38)) 14)) (?v_58 (< (+ (- (* 49 x2) (* 38 x29)) (* 27 x13)) 37)) (?v_137 (distinct (f0_2 x2 x16) x24)) (?v_18 (f0_1 x3))) (let ((?v_150 (= ?v_18 (f0_1 x5))) (?v_1 (f0_1 x30))) (let ((?v_69 (distinct ?v_18 ?v_1)) (?v_31 (f0_1 x15))) (let ((?v_35 (= (f0_2 x38 x14) ?v_31)) (?v_12 (distinct (f0_2 x19 x23) (f0_2 x11 x7))) (?v_34 (distinct (f0_1 x34) x31)) (?v_47 (distinct (f0_2 x25 x4) x8)) (?v_28 (= (f0_2 x7 x24) ?v_18)) (?v_6 (f0_1 x20))) (let ((?v_53 (distinct ?v_6 ?v_31)) (?v_140 (= (f0_2 x11 x29) (f0_1 x10))) (?v_2 (f0_1 x39))) (let ((?v_65 (= ?v_2 (f0_2 x26 x10))) (?v_51 (= (f0_2 x22 x6) (f0_2 x26 x24))) (?v_10 (f0_1 x17))) (let ((?v_57 (= (f0_2 x28 x25) ?v_10)) (?v_63 (distinct x29 x39)) (?v_32 (f0_1 x32))) (let ((?v_50 (distinct ?v_32 x24)) (?v_79 (distinct (f0_2 x32 x32) (f0_2 x27 x38))) (?v_5 (f0_1 x31))) (let ((?v_70 (= x22 ?v_5)) (?v_0 (= ?v_6 x27)) (?v_103 (= (f0_1 x23) (f0_2 x0 x31))) (?v_78 (= (f0_2 x38 x27) (f0_2 x5 x21))) (?v_13 (distinct ?v_5 ?v_6)) (?v_52 (distinct ?v_1 ?v_2)) (?v_109 (= (f0_2 x23 x18) x16)) (?v_20 (distinct ?v_2 (f0_1 x12))) (?v_55 (distinct (f0_1 x2) x9)) (?v_117 (= x28 ?v_32)) (?v_164 (distinct (f0_2 x29 x31) (f0_1 x4))) (?v_44 (distinct (f0_2 x11 x5) (f0_2 x12 x18))) (?v_81 (= (f0_2 x8 x16) x6)) (?v_80 (= x0 (f0_2 x24 x32))) (?v_36 (distinct x5 (f0_2 x28 x1))) (?v_82 (distinct ?v_1 (f0_2 x36 x14))) (?v_3 (distinct (f0_1 x38) (f0_2 x10 x31))) (?v_71 (= ?v_1 (f0_1 x24))) (?v_161 (= x6 (f0_2 x14 x26))) (?v_60 (distinct (f0_2 x5 x22) (f0_2 x37 x24))) (?v_66 (= (f0_2 x12 x10) (f0_1 x26))) (?v_56 (distinct (f0_2 x6 x22) x37)) (?v_155 (= (f0_1 x33) (f0_2 x22 x23))) (?v_169 (not P29)) (?v_39 (not P17)) (?v_107 (not P35)) (?v_93 (not P33))) (let ((?v_11 (not ?v_81)) (?v_118 (not P27)) (?v_192 (not ?v_79)) (?v_38 (not ?v_82)) (?v_110 (not P10)) (?v_96 (not P4)) (?v_8 (not ?v_57)) (?v_24 (not ?v_103)) (?v_43 (not ?v_150)) (?v_48 (not ?v_161)) (?v_165 (not ?v_44)) (?v_46 (not P18)) (?v_132 (not P23)) (?v_99 (not (distinct ?v_10 (f0_1 x1)))) (?v_41 (not ?v_140)) (?v_75 (not P21)) (?v_16 (not ?v_12)) (?v_101 (not P20)) (?v_157 (not P12)) (?v_23 (not ?v_51)) (?v_163 (not P11)) (?v_72 (not P9)) (?v_123 (not ?v_20)) (?v_25 (not ?v_47)) (?v_73 (not P15)) (?v_174 (not ?v_13)) (?v_27 (not P14)) (?v_61 (not ?v_35)) (?v_201 (not ?v_36)) (?v_98 (not ?v_60)) (?v_171 (not ?v_28)) (?v_45 (not P25)) (?v_89 (not P22)) (?v_105 (not ?v_3)) (?v_95 (not P19)) (?v_113 (not ?v_80)) (?v_182 (not P32)) (?v_184 (not P30)) (?v_88 (not P6)) (?v_136 (not ?v_78)) (?v_83 (not ?v_53)) (?v_142 (not ?v_55)) (?v_114 (not ?v_52)) (?v_59 (not P24)) (?v_102 (not ?v_71)) (?v_204 (not P1)) (?v_205 (not ?v_63)) (?v_90 (not ?v_65)) (?v_138 (not ?v_155)) (?v_120 (not ?v_68)) (?v_92 (not ?v_69)) (?v_199 (not ?v_50)) (?v_86 (not P8)) (?v_167 (not P34)) (?v_143 (not P16)) (?v_159 (not ?v_56)) (?v_108 (not P37)) (?v_156 (not ?v_70)) (?v_124 (not ?v_94)) (?v_112 (not P13)) (?v_145 (not ?v_106)) (?v_149 (not P28)) (?v_152 (not ?v_109)) (?v_178 (not ?v_137)) (?v_126 (not ?v_85)) (?v_210 (not P39)) (?v_190 (not P2)) (?v_172 (not ?v_117)) (?v_202 (not P26)) (?v_154 (not ?v_9)) (?v_208 (or ?v_68 ?v_71)) (?v_144 (not ?v_66)) (?v_200 (not P3)) (?v_166 (not ?v_34)) (?v_198 (not P36)) (?v_189 (not P0)) (?v_181 (not ?v_0)) (?v_187 (not P5)) (?v_188 (not P7)) (?v_203 (not ?v_164)) (?v_206 (not ?v_179)) (?v_186 (not P38)) (?v_196 (not ?v_58)) (?v_195 (not P31)) (?v_26 (< (+ (* 3 x13) ?v_49 (* 6 x23)) 57)) (?v_17 (< (+ (* 52 x4) (* 45 x28) (* 28 x29)) 7)) (?v_146 (= (+ (* 42 x13) (* 50 x30) x39) 22))) (let ((?v_37 (not ?v_17)) (?v_104 (not ?v_26)) (?v_193 (not ?v_146)) (?v_160 (<= (- (+ (* (- 25) x10) (* 18 x14)) (* 32 x3)) 28))) (let ((?v_141 (not ?v_160)) (?v_4 (<= (- (- (* 41 x19) (* 33 x6)) (* 56 x19)) (- 1)))) (let ((?v_15 (not ?v_4)) (?v_21 (= (- (- (* 40 x11) (* 50 x11)) (* 47 x17)) (- 57)))) (let ((?v_147 (not ?v_21)) (?v_67 (<= (+ (- (* 56 x3) (* 16 x38)) (* 24 x2)) (- 12)))) (let ((?v_77 (not ?v_67)) (?v_14 (<= (- (- (* (- 13) x26) ?v_158) (* 46 x27)) 37)) (?v_19 (distinct (+ (* (- 45) x11) (* 2 x17) (* 32 x2)) (- 31)))) (let ((?v_168 (not ?v_19)) (?v_40 (= (+ (- (* (- 23) x3) 0) (* 31 x39)) 11))) (let ((?v_7 (not ?v_40)) (?v_209 (< (- (+ (* (- 20) x10) (* 43 x39)) (* 14 x34)) 54))) (let ((?v_30 (not ?v_209)) (?v_22 (distinct (+ (- (* (- 14) x27) (* 21 x35)) (* 6 x4)) (- 3))) (?v_33 (<= (+ (- (* (- 23) x38) (* 52 x5)) x8) 16))) (let ((?v_194 (not ?v_33)) (?v_29 (< (- (- (* (- 53) x32) (* 54 x9)) (* 21 x29)) (- 9))) (?v_100 (not ?v_14)) (?v_130 (<= (+ (* 53 x23) (* 32 x30) (* 22 x34)) (- 28))) (?v_42 (< (- (- (* (- 5) x12) (* 16 x14)) (* 23 x9)) 33)) (?v_127 (not ?v_22))) (let ((?v_91 (not ?v_29)) (?v_183 (<= (+ (* (- 29) x38) (* 25 x38) (* 16 x8)) (- 52)))) (let ((?v_197 (not ?v_183)) (?v_211 (or ?v_33 P2)) (?v_54 (<= (- (- (* 13 x12) (* 29 x37)) (* 41 x16)) (- 3)))) (let ((?v_84 (not ?v_54)) (?v_97 (< (- (+ (* (- 52) x4) (* 18 x16)) (* 12 x34)) 36))) (let ((?v_191 (not ?v_97)) (?v_74 (< (- (- (* 4 x4) (* 45 x24)) (* 13 x10)) (- 24))) (?v_87 (<= (+ (- (* 35 x6) (* 13 x11)) (* 34 x15)) (- 57))) (?v_133 (< (+ (* 54 x15) ?v_49 (* 20 x12)) (- 4))) (?v_64 (<= (+ (* (- 55) x21) (* 20 x23) (* 52 x13)) 6))) (let ((?v_62 (not ?v_64)) (?v_76 (< (+ (- (* 22 x26) (* 55 x27)) (* 35 x7)) (- 23))) (?v_128 (< (+ (- (* (- 18) x19) (* 28 x4)) (* 5 x19)) 14))) (let ((?v_135 (not ?v_128)) (?v_129 (< (+ (* (- 29) x30) (* 31 x14) (* 7 x31)) (- 39)))) (let ((?v_131 (not ?v_129)) (?v_122 (<= (- (- (* (- 43) x38) (* 48 x16)) (* 30 x4)) (- 32))) (?v_125 (= (+ (* (- 35) x29) (* 3 x20) (* 31 x16)) 23))) (let ((?v_177 (not ?v_125)) (?v_175 (or ?v_14 ?v_89)) (?v_116 (distinct (- (+ (* 50 x8) (* 41 x9)) (* 47 x1)) (- 18)))) (let ((?v_111 (not ?v_116)) (?v_151 (= (+ (- (* 13 x7) (* 37 x37)) (* 3 x34)) (- 8))) (?v_119 (= (- (+ (* (- 18) x12) (* 28 x13)) (* 12 x17)) (- 46))) (?v_115 (not ?v_87))) (let ((?v_121 (not ?v_119)) (?v_173 (not ?v_76)) (?v_139 (< (- (- (* (- 18) x27) (* 28 x31)) (* 38 x4)) (- 36))) (?v_134 (not ?v_122)) (?v_180 (not ?v_130)) (?v_148 (not ?v_133))) (let ((?v_153 (not ?v_139)) (?v_170 (not ?v_151)) (?v_185 (not ?v_42)) (?v_162 (< (- (- (* (- 3) x17) (* 54 x13)) ?v_158) 54))) (let ((?v_176 (not ?v_162)) (?v_207 (not ?v_74))) (and (and (and (and (and (and (and (and (and (and (and (and (and (and (and (and (and (and (and (and (and (and (and (and (and (and (and (and (and (and (and (and (and (and (and (and (and (and (and (and (and (and (and (and (and (and (and (and (and (and (and (and (and (and (and (and (and (and (and (and (and (and (and (and (and (and (and (and (and (and (and (and (and (and (and (and (and (and (and (and (and (and (and (and (and (and (and (and (and (and (and (and (and (and (and (and (and (and (and (and (and (and (and (and (and (and (and (and (and (and (and (and (and (and (and (and (and (and (and (and (and (and (and (and (and (and (and (and (and (and (and (and (and (and (and (and (and (and (and (and (and (and (and (and (and (and (and (and (and (and (and (and (and (and (and (and (and (and (and (and (and (and (and (and (and (and (and (and (and (and (and (and (and (and (and (and (and (and (and (and (and (and (and (and (and (and (and (and (and (and (and (and (and (and (and (and (and (and (and (and (and (and (and (and (and (and (and (and (and (and (and (and (and (and (and (and (and (and (and (and (and (and (and (and (and (and (and (and (and (and (and (and (and (and (and (and (and (and (and (and (and (and (and (and (and (and (and (and (and (and (and (and (and (and (and (and (and (and (and (and (and (and (and (and (and (and (and (and (and (and (and (and (and (and (and (and (and (and (and (and (and (and (and (and (and (and (and (and (and (and (and (and (and (and (and (and (and (and (and (and (and (and (and (and (and (and (and (and (and (and (and (and (and (and (and (and (and (and (and (and (and (and (and (and (and (and (and (and (and (and (and (and (and (and (and (and (and (and (and (and (and (and (and (and (and (and (and (and (and (and (and (and (and (and (and (and (and (and (and (and (and (and (and (and (and (and (and (and (and (and (and (and (and (and (and (and (and (and (and (and (and (and (and (and (and (and (and (and (and (and (and (and (and (and (and (and (and (and (and (and (and (and (and (and (and (and (and (and (and (and (and (and (and (and (and (and (and (and (and (and (and (and (and (and (and (and (and (and (and (and (and (and (and (and (and (and (and (and (and (and (and (and (and (and (and (and (and (and (and (and (and (and (and (and (and (and (and (and (and (and (and (and (and (and (and (and (and (and (and (and (and (and (and (and (and (and (and (and (and (or (or ?v_3 ?v_117) ?v_141) (or (or ?v_15 ?v_169) ?v_39)) (or (or P33 P2) ?v_147)) (or (or ?v_0 ?v_94) ?v_107)) (or (or ?v_26 ?v_77) ?v_93)) (or (or ?v_0 ?v_14) ?v_17)) (or (or ?v_11 ?v_70) P3)) (or (or ?v_146 ?v_118) ?v_20)) (or (or ?v_168 ?v_109) ?v_192)) (or (or ?v_56 ?v_38) P26)) (or (or P4 ?v_110) ?v_52)) (or (or ?v_96 P37) ?v_9)) (or (or ?v_7 P28) ?v_8)) (or (or ?v_3 ?v_4) ?v_13)) (or (or P11 ?v_30) P33)) (or (or ?v_7 ?v_24) ?v_22)) (or (or ?v_43 P7) ?v_48)) (or (or ?v_12 ?v_8) ?v_9)) (or (or ?v_165 ?v_46) P30)) (or (or ?v_132 ?v_99) ?v_41)) (or (or ?v_11 ?v_75) ?v_34)) (or (or ?v_194 ?v_16) ?v_101)) (or (or ?v_29 ?v_13) ?v_100)) (or (or ?v_157 ?v_65) ?v_15)) (or (or ?v_16 ?v_37) ?v_28)) (or (or ?v_23 ?v_163) ?v_7)) (or (or ?v_19 ?v_72) ?v_130)) (or (or ?v_42 P29) ?v_123)) (or (or ?v_25 ?v_73) ?v_9)) (or (or ?v_174 ?v_21) ?v_127)) (or (or ?v_23 ?v_27) ?v_17)) (or (or ?v_24 ?v_61) ?v_20)) (or (or ?v_25 P26) ?v_58)) (or (or ?v_201 ?v_26) ?v_98)) (or (or P38 ?v_68) ?v_27)) (or (or ?v_19 P23) ?v_55)) (or (or ?v_171 ?v_91) P14)) (or (or P1 P2) ?v_30)) (or (or ?v_197 ?v_53) ?v_45)) (or (or P6 ?v_104) ?v_89)) (or (or ?v_50 P25) P30)) (or ?v_211 ?v_84)) (or (or ?v_34 ?v_105) P13)) (or (or ?v_35 P32) ?v_36)) (or (or ?v_37 P21) ?v_95)) (or (or ?v_191 ?v_36) ?v_38)) (or (or ?v_39 ?v_40) ?v_22)) (or (or ?v_41 ?v_42) ?v_113)) (or (or P7 ?v_43) ?v_44)) (or (or ?v_74 ?v_41) ?v_20)) (or (or ?v_45 ?v_46) P14)) (or (or ?v_47 ?v_87) ?v_8)) (or (or ?v_63 ?v_182) ?v_7)) (or (or ?v_48 ?v_34) ?v_184)) (or (or ?v_26 ?v_88) ?v_37)) (or (or ?v_133 ?v_106) ?v_62)) (or (or ?v_16 ?v_76) ?v_50)) (or (or ?v_51 ?v_52) P34)) (or (or ?v_136 ?v_83) P13)) (or (or ?v_54 ?v_142) ?v_69)) (or (or ?v_4 ?v_114) ?v_59)) (or (or ?v_56 ?v_102) P9)) (or (or ?v_57 ?v_58) ?v_59)) (or (or P29 ?v_66) ?v_60)) (or (or ?v_8 ?v_204) ?v_61)) (or (or P25 ?v_37) ?v_179)) (or (or ?v_85 ?v_16) ?v_62)) (or (or ?v_13 ?v_205) ?v_64)) (or (or ?v_90 ?v_63) ?v_66)) (or (or ?v_16 ?v_21) ?v_138)) (or (or ?v_17 ?v_64) ?v_67)) (or (or ?v_135 ?v_56) ?v_131)) (or (or ?v_120 ?v_92) ?v_70)) (or (or ?v_45 ?v_71) P28)) (or (or ?v_122 ?v_66) P26)) (or (or ?v_72 ?v_73) P12)) (or (or ?v_74 ?v_75) ?v_44)) (or (or P22 ?v_199) ?v_76)) (or (or P35 ?v_77) ?v_53)) (or (or ?v_78 ?v_79) ?v_80)) (or (or ?v_81 ?v_76) ?v_86)) (or (or ?v_167 ?v_82) ?v_177)) (or (or P21 ?v_143) ?v_21)) (or (or ?v_62 ?v_159) ?v_83)) (or (or ?v_84 ?v_9) ?v_34)) (or (or ?v_27 ?v_11) ?v_85)) (or (or ?v_9 ?v_77) ?v_50)) (or (or ?v_20 P27) ?v_61)) (or (or ?v_86 ?v_28) P10)) (or (or ?v_108 ?v_87) ?v_15)) (or (or ?v_43 ?v_73) ?v_88)) (or ?v_175 P24)) (or (or ?v_37 ?v_90) P26)) (or (or ?v_91 ?v_92) ?v_93)) (or (or ?v_111 P35) ?v_94)) (or (or ?v_88 ?v_95) ?v_96)) (or (or ?v_11 P16) ?v_97)) (or (or ?v_98 ?v_53) ?v_99)) (or (or ?v_156 ?v_100) ?v_22)) (or (or ?v_68 ?v_124) ?v_63)) (or (or P5 ?v_101) ?v_102)) (or (or P16 ?v_79) ?v_103)) (or (or ?v_112 ?v_46) ?v_104)) (or (or ?v_105 ?v_16) ?v_151)) (or (or ?v_66 ?v_11) ?v_119)) (or (or P35 P3) ?v_145)) (or (or ?v_107 ?v_80) ?v_108)) (or (or ?v_13 ?v_149) P20)) (or (or ?v_62 ?v_0) ?v_152)) (or (or ?v_115 ?v_28) P19)) (or (or ?v_164 ?v_43) ?v_178)) (or (or P34 ?v_110) ?v_111)) (or (or ?v_53 P24) ?v_112)) (or (or ?v_113 P25) ?v_126)) (or (or ?v_51 ?v_86) ?v_59)) (or (or ?v_114 P37) P19)) (or (or ?v_115 ?v_7) ?v_210)) (or (or ?v_11 ?v_84) ?v_190)) (or (or P17 P25) ?v_116)) (or (or P10 ?v_63) ?v_54)) (or (or ?v_97 ?v_172) ?v_65)) (or (or P6 ?v_89) ?v_202)) (or (or P20 ?v_118) P4)) (or (or ?v_16 ?v_97) ?v_79)) (or (or ?v_17 ?v_78) ?v_66)) (or (or ?v_121 ?v_173) ?v_109)) (or (or P24 ?v_90) ?v_76)) (or (or ?v_74 ?v_104) ?v_154)) (or (or ?v_11 ?v_116) ?v_98)) (or (or ?v_139 ?v_120) ?v_50)) (or (or ?v_29 ?v_121) ?v_44)) (or (or ?v_107 ?v_50) P11)) (or (or ?v_99 P26) ?v_34)) (or (or ?v_81 ?v_134) ?v_41)) (or (or P9 ?v_119) ?v_123)) (or (or ?v_124 ?v_125) ?v_79)) (or (or ?v_106 ?v_89) ?v_91)) (or (or ?v_126 ?v_127) ?v_27)) (or (or ?v_55 ?v_119) ?v_128)) (or ?v_208 ?v_57)) (or (or ?v_8 ?v_90) ?v_54)) (or (or ?v_120 ?v_129) P24)) (or (or ?v_58 ?v_180) ?v_75)) (or (or ?v_131 ?v_132) ?v_46)) (or (or ?v_121 P3) ?v_21)) (or (or ?v_111 ?v_125) ?v_148)) (or (or ?v_128 ?v_24) ?v_122)) (or (or ?v_125 ?v_134) P34)) (or (or ?v_123 P1) ?v_144)) (or (or ?v_63 ?v_43) ?v_135)) (or (or ?v_104 ?v_136) ?v_67)) (or (or ?v_124 ?v_3) ?v_79)) (or (or ?v_137 P6) ?v_86)) (or (or ?v_138 ?v_76) ?v_84)) (or (or ?v_200 ?v_116) P15)) (or (or ?v_109 ?v_55) P25)) (or (or ?v_65 ?v_4) ?v_139)) (or (or ?v_70 ?v_88) ?v_97)) (or (or ?v_70 P3) ?v_17)) (or (or ?v_140 P34) ?v_77)) (or (or ?v_166 ?v_141) ?v_142)) (or (or ?v_63 ?v_81) ?v_0)) (or (or ?v_13 ?v_131) ?v_119)) (or (or ?v_85 ?v_63) ?v_93)) (or (or ?v_9 ?v_143) P17)) (or (or ?v_85 P23) ?v_104)) (or (or ?v_131 ?v_143) ?v_69)) (or (or ?v_70 ?v_153) ?v_39)) (or (or ?v_142 ?v_47) ?v_106)) (or (or ?v_144 ?v_85) ?v_145)) (or (or ?v_97 ?v_198) ?v_136)) (or (or ?v_146 P17) ?v_147)) (or (or ?v_65 ?v_132) ?v_47)) (or (or ?v_130 P27) ?v_0)) (or (or ?v_112 ?v_76) ?v_82)) (or (or ?v_33 ?v_81) ?v_189)) (or (or P34 ?v_9) ?v_88)) (or (or ?v_147 ?v_148) ?v_149)) (or (or ?v_148 ?v_144) ?v_17)) (or (or ?v_150 ?v_30) P33)) (or (or ?v_12 ?v_9) P13)) (or (or P8 ?v_78) ?v_151)) (or (or ?v_98 ?v_36) ?v_152)) (or (or ?v_170 ?v_101) ?v_104)) (or (or ?v_153 P21) ?v_93)) (or (or ?v_154 ?v_64) ?v_61)) (or (or ?v_155 ?v_61) ?v_151)) (or (or ?v_156 ?v_137) P25)) (or (or ?v_145 P26) P23)) (or (or ?v_110 ?v_35) ?v_181)) (or (or ?v_133 ?v_17) ?v_185)) (or (or ?v_101 ?v_157) ?v_132)) (or (or ?v_133 P28) ?v_122)) (or (or ?v_162 ?v_159) ?v_70)) (or (or ?v_160 ?v_101) ?v_107)) (or (or ?v_36 ?v_159) ?v_161)) (or (or ?v_155 ?v_19) P17)) (or (or ?v_176 P39) ?v_65)) (or (or ?v_78 ?v_187) ?v_83)) (or (or ?v_35 P2) ?v_126)) (or (or ?v_68 ?v_128) ?v_154)) (or (or ?v_127 ?v_144) ?v_3)) (or (or ?v_163 ?v_164) P16)) (or (or ?v_165 ?v_166) ?v_60)) (or (or ?v_62 ?v_126) P3)) (or (or ?v_131 ?v_167) ?v_144)) (or (or ?v_168 ?v_149) ?v_169)) (or (or ?v_133 ?v_166) ?v_8)) (or (or ?v_90 ?v_47) ?v_155)) (or (or ?v_38 P21) ?v_127)) (or (or ?v_81 ?v_170) ?v_17)) (or (or ?v_94 ?v_107) ?v_161)) (or (or ?v_148 ?v_143) ?v_98)) (or (or ?v_116 ?v_121) ?v_81)) (or (or ?v_168 ?v_42) ?v_97)) (or (or ?v_128 P8) ?v_94)) (or (or ?v_162 ?v_171) ?v_172)) (or (or ?v_73 ?v_193) ?v_188)) (or (or ?v_82 ?v_173) ?v_170)) (or (or P39 ?v_51) ?v_165)) (or (or ?v_157 ?v_64) ?v_174)) (or ?v_175 ?v_55)) (or (or ?v_136 ?v_61) P30)) (or (or ?v_41 ?v_26) ?v_16)) (or (or ?v_14 ?v_47) ?v_37)) (or (or ?v_79 ?v_19) ?v_149)) (or (or ?v_148 ?v_176) ?v_177)) (or (or ?v_59 P17) ?v_40)) (or (or ?v_126 P29) ?v_70)) (or (or ?v_163 ?v_53) ?v_111)) (or (or ?v_129 ?v_178) ?v_152)) (or (or ?v_41 ?v_24) ?v_152)) (or (or P13 P35) ?v_92)) (or (or ?v_172 ?v_47) P35)) (or (or ?v_203 ?v_206) ?v_65)) (or (or ?v_109 ?v_180) ?v_52)) (or (or ?v_163 ?v_156) ?v_26)) (or (or ?v_40 P19) ?v_89)) (or (or ?v_93 ?v_181) ?v_182)) (or (or ?v_103 ?v_8) ?v_87)) (or (or ?v_183 ?v_144) ?v_91)) (or (or ?v_157 ?v_47) ?v_81)) (or (or ?v_111 ?v_77) ?v_135)) (or (or ?v_148 ?v_151) ?v_48)) (or (or ?v_137 ?v_184) ?v_94)) (or (or P14 ?v_70) ?v_164)) (or (or ?v_112 ?v_152) ?v_129)) (or (or P26 ?v_64) ?v_29)) (or (or ?v_40 ?v_99) ?v_136)) (or (or P30 ?v_103) ?v_185)) (or (or ?v_186 ?v_136) ?v_58)) (or (or ?v_89 ?v_53) ?v_177)) (or (or ?v_97 ?v_27) P7)) (or (or ?v_186 ?v_98) ?v_181)) (or (or ?v_81 ?v_41) ?v_154)) (or (or ?v_187 ?v_104) ?v_94)) (or (or ?v_196 P9) ?v_50)) (or (or ?v_87 ?v_136) ?v_110)) (or (or ?v_33 ?v_188) ?v_195)) (or (or ?v_131 ?v_179) ?v_71)) (or (or ?v_187 ?v_36) ?v_123)) (or (or ?v_125 ?v_4) P6)) (or (or ?v_124 ?v_30) ?v_189)) (or (or ?v_155 ?v_101) P13)) (or (or ?v_190 P6) P7)) (or (or ?v_118 ?v_57) ?v_111)) (or (or ?v_188 ?v_7) ?v_0)) (or (or ?v_119 ?v_93) ?v_124)) (or (or ?v_67 ?v_137) ?v_27)) (or (or ?v_188 ?v_59) ?v_128)) (or (or ?v_94 ?v_191) P17)) (or (or ?v_192 ?v_109) ?v_26)) (or (or ?v_74 ?v_174) ?v_17)) (or (or ?v_113 ?v_61) ?v_112)) (or (or ?v_133 ?v_148) ?v_137)) (or (or ?v_193 ?v_43) ?v_207)) (or (or P32 ?v_164) ?v_77)) (or (or ?v_122 ?v_112) ?v_98)) (or (or P15 ?v_123) ?v_142)) (or (or P26 ?v_92) ?v_194)) (or (or ?v_37 P5) ?v_29)) (or (or ?v_127 ?v_38) ?v_132)) (or (or ?v_15 ?v_139) P28)) (or (or ?v_174 ?v_195) ?v_156)) (or (or ?v_12 ?v_87) ?v_3)) (or (or ?v_83 ?v_172) P6)) (or (or ?v_39 ?v_161) ?v_115)) (or (or ?v_196 ?v_164) ?v_67)) (or (or ?v_182 ?v_132) ?v_37)) (or (or ?v_26 ?v_116) ?v_136)) (or (or ?v_91 ?v_71) ?v_63)) (or (or ?v_25 ?v_187) ?v_166)) (or (or ?v_72 ?v_54) ?v_139)) (or (or ?v_81 ?v_9) ?v_131)) (or (or ?v_73 ?v_174) ?v_109)) (or (or ?v_192 P16) ?v_152)) (or (or ?v_170 P38) ?v_80)) (or (or ?v_51 ?v_54) ?v_93)) (or (or ?v_145 P21) ?v_150)) (or (or ?v_53 P1) ?v_172)) (or (or ?v_197 ?v_139) ?v_104)) (or (or ?v_54 ?v_152) P7)) (or (or P10 ?v_93) ?v_33)) (or (or ?v_59 ?v_65) ?v_42)) (or (or ?v_198 ?v_7) ?v_123)) (or (or ?v_189 ?v_94) ?v_194)) (or (or ?v_74 ?v_35) ?v_161)) (or (or ?v_38 ?v_85) ?v_67)) (or (or ?v_162 ?v_94) ?v_136)) (or (or ?v_168 ?v_88) ?v_199)) (or (or ?v_78 ?v_58) ?v_84)) (or (or P1 ?v_34) ?v_40)) (or (or ?v_148 ?v_196) ?v_79)) (or (or ?v_25 ?v_147) ?v_16)) (or (or ?v_111 ?v_110) ?v_193)) (or (or ?v_163 ?v_13) ?v_38)) (or (or P6 ?v_42) ?v_138)) (or (or ?v_190 ?v_200) ?v_92)) (or (or ?v_123 ?v_88) ?v_144)) (or (or ?v_93 ?v_101) P21)) (or (or P36 ?v_201) ?v_184)) (or (or ?v_146 P18) ?v_89)) (or (or ?v_88 ?v_19) ?v_129)) (or (or ?v_145 ?v_39) ?v_44)) (or (or ?v_124 ?v_197) ?v_189)) (or (or ?v_106 ?v_50) ?v_129)) (or (or ?v_20 ?v_152) ?v_151)) (or (or ?v_79 ?v_81) ?v_122)) (or (or ?v_63 ?v_139) ?v_192)) (or (or ?v_45 P33) ?v_128)) (or (or ?v_41 ?v_84) ?v_137)) (or (or ?v_202 ?v_89) ?v_11)) (or (or ?v_182 ?v_127) ?v_203)) (or (or ?v_14 ?v_66) ?v_81)) (or (or ?v_28 ?v_163) ?v_62)) (or (or ?v_184 ?v_197) ?v_27)) (or (or ?v_103 ?v_204) ?v_136)) (or (or ?v_43 ?v_36) P21)) (or (or ?v_51 ?v_76) P25)) (or (or ?v_7 P26) ?v_148)) (or (or ?v_79 ?v_39) ?v_12)) (or (or ?v_46 ?v_107) ?v_28)) (or (or ?v_159 ?v_88) ?v_173)) (or (or ?v_54 ?v_70) ?v_144)) (or (or ?v_81 ?v_115) P31)) (or (or ?v_196 ?v_205) ?v_106)) (or (or ?v_193 ?v_206) ?v_107)) (or (or ?v_91 ?v_112) P16)) (or (or ?v_4 ?v_203) P38)) (or (or ?v_60 ?v_61) ?v_45)) (or (or P16 ?v_181) ?v_207)) (or (or ?v_68 ?v_196) ?v_9)) (or ?v_208 P2)) (or (or ?v_60 ?v_103) ?v_80)) (or (or ?v_75 ?v_194) ?v_198)) (or (or ?v_196 ?v_142) ?v_153)) (or (or ?v_142 P10) ?v_185)) (or (or ?v_209 ?v_105) ?v_156)) (or (or ?v_4 P28) ?v_137)) (or (or ?v_101 P33) ?v_20)) (or (or ?v_210 P32) P7)) (or (or ?v_37 ?v_130) ?v_209)) (or (or ?v_23 ?v_172) ?v_68)) (or (or ?v_79 ?v_100) P28)) (or (or ?v_54 P2) ?v_193)) (or (or ?v_22 P30) ?v_168)) (or (or ?v_113 ?v_58) P36)) (or (or P13 ?v_83) ?v_41)) (or (or P38 P26) ?v_89)) (or (or ?v_165 ?v_125) P14)) (or (or ?v_197 ?v_14) ?v_50)) (or (or ?v_169 ?v_25) ?v_185)) (or (or P23 ?v_183) ?v_13)) (or (or ?v_130 ?v_3) ?v_156)) (or (or P17 ?v_111) ?v_46)) (or (or ?v_25 ?v_144) ?v_196)) (or (or P11 ?v_67) ?v_196)) (or (or P5 ?v_73) ?v_202)) (or (or P32 ?v_78) ?v_167)) (or (or ?v_155 ?v_109) ?v_26)) (or (or ?v_72 ?v_82) ?v_157)) (or (or P38 P27) P14)) (or (or ?v_156 ?v_3) ?v_114)) (or (or ?v_106 ?v_33) P33)) (or (or ?v_74 ?v_163) P26)) (or (or ?v_86 ?v_181) ?v_46)) (or (or P2 P24) P1)) (or (or P7 ?v_118) P13)) (or (or ?v_90 ?v_12) ?v_66)) (or (or ?v_140 P35) P32)) (or (or P22 ?v_25) ?v_46)) (or (or ?v_139 ?v_92) ?v_197)) (or (or ?v_159 ?v_146) ?v_200)) (or (or ?v_101 ?v_35) ?v_155)) (or (or ?v_46 ?v_34) P9)) (or (or P33 ?v_66) ?v_68)) (or (or ?v_207 ?v_21) ?v_157)) (or (or ?v_118 ?v_191) ?v_126)) (or (or ?v_63 ?v_180) ?v_141)) (or (or P18 ?v_15) ?v_60)) (or (or ?v_71 ?v_146) ?v_144)) (or (or ?v_182 ?v_57) ?v_207)) (or (or ?v_171 ?v_173) ?v_142)) (or (or ?v_21 ?v_193) ?v_187)) (or (or ?v_59 ?v_91) P36)) (or (or ?v_87 P37) ?v_206)) (or (or ?v_190 ?v_134) ?v_48)) (or (or ?v_124 ?v_69) ?v_59)) (or (or ?v_48 ?v_161) ?v_26)) (or (or ?v_67 P37) ?v_24)) (or (or ?v_68 ?v_122) P15)) (or (or P9 ?v_34) ?v_55)) (or (or ?v_46 ?v_70) ?v_187)) (or (or ?v_141 ?v_82) P31)) (or (or P5 ?v_77) ?v_205)) (or (or ?v_149 ?v_116) ?v_61)) (or (or ?v_61 ?v_149) P22)) (or (or ?v_78 ?v_89) ?v_102)) (or (or P14 ?v_176) P37)) (or (or P19 ?v_78) ?v_185)) (or (or ?v_33 ?v_131) ?v_79)) (or (or P22 ?v_159) ?v_41)) (or (or ?v_137 ?v_52) ?v_206)) (or (or ?v_44 ?v_94) ?v_164)) (or (or ?v_83 P5) ?v_30)) (or (or ?v_3 ?v_30) ?v_153)) (or (or ?v_122 ?v_42) ?v_136)) (or (or ?v_168 ?v_173) ?v_0)) (or (or P2 ?v_210) ?v_7)) (or (or ?v_122 ?v_72) ?v_174)) (or (or ?v_121 ?v_207) P16)) (or (or ?v_204 P25) ?v_111)) (or (or ?v_96 ?v_53) ?v_206)) (or (or ?v_177 ?v_86) P13)) (or (or ?v_192 ?v_102) ?v_209)) (or (or ?v_29 ?v_84) ?v_25)) (or (or P10 ?v_135) ?v_35)) (or (or ?v_64 ?v_27) ?v_104)) (or (or ?v_156 P33) ?v_176)) (or (or ?v_129 ?v_156) ?v_150)) (or (or ?v_123 ?v_183) ?v_92)) (or (or ?v_195 ?v_180) P30)) (or (or ?v_153 ?v_91) ?v_154)) (or (or ?v_182 ?v_3) ?v_22)) (or (or ?v_42 ?v_128) P20)) (or (or P16 ?v_153) P17)) (or (or ?v_73 ?v_153) P7)) (or (or P29 P34) ?v_50)) (or (or ?v_139 ?v_156) ?v_122)) (or (or ?v_101 ?v_108) P34)) (or (or ?v_50 ?v_115) P34)) (or (or ?v_3 ?v_87) ?v_176)) (or (or ?v_9 ?v_165) ?v_141)) (or ?v_211 ?v_138)) (or (or ?v_84 P11) ?v_191)) (or (or ?v_81 ?v_55) P15)) (or (or ?v_60 ?v_209) ?v_148)) (or (or P19 ?v_191) ?v_131)) (or (or P29 ?v_150) ?v_192)) (or (or ?v_185 ?v_58) P4)) (or (or P24 ?v_173) P19)) (or (or P25 P37) ?v_185)) (or (or P19 ?v_126) ?v_34)) (or (or ?v_29 ?v_111) P35)) (or (or ?v_90 ?v_129) ?v_103)) (or (or P32 ?v_65) ?v_146)) (or (or ?v_201 ?v_196) P15)) (or (or ?v_200 ?v_120) P24)) (or (or ?v_205 P20) ?v_16)) (or (or ?v_69 ?v_165) ?v_89)) (or (or ?v_36 P30) ?v_69)) (or (or ?v_61 ?v_155) ?v_29)) (or (or ?v_112 ?v_127) ?v_128)) (or (or ?v_47 ?v_42) ?v_153)) (or (or ?v_168 P35) P31)) (or (or ?v_91 ?v_68) ?v_206)) (or (or P6 ?v_4) ?v_115)) (or (or ?v_23 ?v_33) ?v_139)) (or (or ?v_199 ?v_42) ?v_51)) (or (or ?v_24 ?v_4) ?v_180))))))))))))))))))))))))))))))))))
(check-sat)
(exit)
